50, 62425
443, 2551
335, 2552
154, 2553
997, 2554
679, 2555
536, 2556
473, 2557
874, 2558
831, 2559
473, 2560
285, 2561
573, 2562
249, 2563
317, 2564
764, 2565
586, 2566
268, 2567
708, 2568
205, 2569
688, 2570
312, 2571
939, 2572
852, 2573
872, 2574
224, 2575
933, 2576
66, 2577
532, 2578
242, 2579
869, 2580
16, 2581
969, 2582
709, 2583
529, 2584
21, 2585
5, 2586
41, 2587
656, 2588
555, 2589
784, 2590
170, 2591
388, 2592
662, 2593
95, 2594
845, 2595
201, 2596
492, 2597
508, 2598
41, 2599
547, 2600
